====================================================================================================================
File name: 200_10_50_15.def
Creation date: Mon Nov 24 20:40:30 CET 2014
Website: http://imopse.ii.pwr.edu.pl/
Reference:
Myszkowski P. B., Skowronski M. E., Olech L., Oslizlo K.,
Hybrid Ant Colony Optimization in solving Multi-Skill Resource-Constrained Project Scheduling Problem,
Soft Computing, DOI: DOI 10.1007/s00500-014-1455-x
====================================================================================================================
General characteristics:
Tasks: 200
Resources: 10
Precedence relations: 50
Number of skill types: 14
====================================================================================================================
ResourceID 	 Salary 	 Skills
1	 	 	37.2	 	 Q4: 0 	  Q6: 2 	  Q1: 0 	  Q11: 0 	  Q2: 1 	  Q3: 0
2	 	 	16.7	 	 Q1: 0 	  Q9: 2 	  Q11: 2 	  Q10: 2 	  Q2: 1 	  Q12: 2
3	 	 	26.2	 	 Q12: 1 	  Q1: 2 	  Q10: 0 	  Q5: 2 	  Q9: 0 	  Q8: 0
4	 	 	19.5	 	 Q12: 2 	  Q0: 0 	  Q4: 0 	  Q8: 2 	  Q5: 2 	  Q13: 2
5	 	 	100.0	 	 Q10: 1 	  Q1: 1 	  Q13: 0 	  Q9: 1 	  Q0: 1 	  Q3: 2
6	 	 	61.0	 	 Q13: 2 	  Q8: 2 	  Q12: 0 	  Q11: 1 	  Q3: 2 	  Q9: 2
7	 	 	14.7	 	 Q9: 2 	  Q1: 0 	  Q6: 1 	  Q4: 2 	  Q0: 1 	  Q12: 0
8	 	 	10.2	 	 Q13: 2 	  Q2: 0 	  Q11: 0 	  Q7: 0 	  Q0: 0 	  Q6: 1
9	 	 	24.7	 	 Q5: 2 	  Q9: 1 	  Q6: 0 	  Q0: 1 	  Q1: 0 	  Q13: 0
10	 	 	91.4	 	 Q11: 0 	  Q10: 2 	  Q9: 0 	  Q13: 1 	  Q0: 0 	  Q12: 1
====================================================================================================================
TaskID 	 Duration 	 Skill 	 Predecessor IDs
1	 	 	16	 Q8: 0
2	 	 	28	 Q8: 0
3	 	 	9	 Q9: 0
4	 	 	15	 Q1: 2
5	 	 	12	 Q9: 1
6	 	 	22	 Q4: 0
7	 	 	33	 Q13: 0
8	 	 	14	 Q13: 1
9	 	 	24	 Q8: 2
10	 	 	31	 Q12: 2
11	 	 	17	 Q11: 2
12	 	 	22	 Q13: 0
13	 	 	21	 Q6: 1
14	 	 	15	 Q8: 0
15	 	 	20	 Q12: 0
16	 	 	18	 Q12: 2
17	 	 	9	 Q1: 2	 	14
18	 	 	38	 Q12: 1
19	 	 	19	 Q7: 0	 	8
20	 	 	31	 Q13: 2
21	 	 	30	 Q2: 0
22	 	 	31	 Q12: 0
23	 	 	10	 Q8: 0
24	 	 	24	 Q5: 2
25	 	 	24	 Q0: 0
26	 	 	13	 Q6: 2
27	 	 	16	 Q0: 1
28	 	 	29	 Q1: 0
29	 	 	32	 Q12: 0
30	 	 	11	 Q1: 1
31	 	 	17	 Q2: 1
32	 	 	29	 Q2: 1
33	 	 	40	 Q13: 1
34	 	 	38	 Q7: 0
35	 	 	15	 Q10: 1
36	 	 	19	 Q0: 0
37	 	 	26	 Q3: 0
38	 	 	25	 Q10: 1
39	 	 	36	 Q1: 2
40	 	 	16	 Q6: 2
41	 	 	14	 Q11: 2
42	 	 	10	 Q11: 0
43	 	 	18	 Q5: 2
44	 	 	30	 Q4: 0
45	 	 	23	 Q9: 2
46	 	 	33	 Q1: 0
47	 	 	21	 Q9: 2
48	 	 	28	 Q3: 2
49	 	 	37	 Q9: 1
50	 	 	29	 Q8: 2
51	 	 	16	 Q12: 1
52	 	 	13	 Q12: 1
53	 	 	32	 Q10: 2
54	 	 	27	 Q6: 2
55	 	 	9	 Q6: 2	 	11
56	 	 	9	 Q2: 0
57	 	 	14	 Q8: 2
58	 	 	26	 Q12: 2
59	 	 	30	 Q10: 0
60	 	 	30	 Q6: 2	 	22
61	 	 	22	 Q10: 2
62	 	 	23	 Q10: 1
63	 	 	14	 Q6: 2
64	 	 	33	 Q6: 2	 	35
65	 	 	40	 Q9: 1
66	 	 	21	 Q6: 1
67	 	 	11	 Q8: 2
68	 	 	26	 Q9: 0
69	 	 	27	 Q9: 0
70	 	 	9	 Q13: 1
71	 	 	26	 Q6: 2
72	 	 	35	 Q1: 1
73	 	 	33	 Q10: 1
74	 	 	37	 Q9: 0
75	 	 	22	 Q8: 0
76	 	 	39	 Q9: 2	 	20
77	 	 	10	 Q9: 0
78	 	 	19	 Q6: 1
79	 	 	31	 Q13: 2
80	 	 	33	 Q8: 0
81	 	 	23	 Q9: 0
82	 	 	21	 Q11: 0
83	 	 	10	 Q13: 2
84	 	 	35	 Q1: 1
85	 	 	22	 Q6: 1
86	 	 	28	 Q10: 2
87	 	 	22	 Q8: 2	 	20
88	 	 	16	 Q2: 0
89	 	 	37	 Q7: 0
90	 	 	14	 Q0: 0
91	 	 	11	 Q11: 1
92	 	 	21	 Q6: 0	 	43	30
93	 	 	17	 Q12: 0	 	80
94	 	 	23	 Q12: 0
95	 	 	33	 Q6: 2
96	 	 	17	 Q12: 2
97	 	 	39	 Q4: 0	 	87
98	 	 	20	 Q6: 2
99	 	 	38	 Q9: 2	 	68
100	 	 	16	 Q11: 1
101	 	 	39	 Q9: 2	 	72
102	 	 	16	 Q11: 1
103	 	 	20	 Q10: 2	 	10
104	 	 	25	 Q13: 2
105	 	 	36	 Q9: 0	 	104
106	 	 	38	 Q6: 2
107	 	 	25	 Q5: 2
108	 	 	29	 Q1: 2
109	 	 	19	 Q13: 1	 	79
110	 	 	22	 Q6: 1
111	 	 	23	 Q13: 0
112	 	 	17	 Q6: 1
113	 	 	31	 Q4: 0
114	 	 	37	 Q2: 1	 	58
115	 	 	29	 Q12: 2
116	 	 	10	 Q13: 1
117	 	 	40	 Q13: 2	 	12
118	 	 	19	 Q10: 0
119	 	 	24	 Q8: 0	 	11
120	 	 	13	 Q10: 1
121	 	 	26	 Q10: 0	 	53	28
122	 	 	39	 Q11: 0
123	 	 	27	 Q9: 1
124	 	 	23	 Q12: 2
125	 	 	23	 Q10: 0
126	 	 	38	 Q1: 1
127	 	 	29	 Q8: 0
128	 	 	26	 Q4: 2	 	110
129	 	 	17	 Q3: 0
130	 	 	34	 Q8: 2
131	 	 	25	 Q3: 2	 	110
132	 	 	16	 Q12: 1
133	 	 	12	 Q6: 2
134	 	 	35	 Q13: 2
135	 	 	19	 Q6: 0
136	 	 	17	 Q2: 1	 	39
137	 	 	9	 Q12: 1
138	 	 	12	 Q9: 0	 	123
139	 	 	30	 Q13: 0	 	7
140	 	 	36	 Q2: 1
141	 	 	16	 Q3: 2
142	 	 	18	 Q11: 2
143	 	 	23	 Q5: 2
144	 	 	39	 Q9: 2	 	45
145	 	 	14	 Q9: 1
146	 	 	40	 Q13: 2
147	 	 	23	 Q10: 2	 	15
148	 	 	9	 Q3: 2
149	 	 	32	 Q12: 0
150	 	 	10	 Q6: 2
151	 	 	25	 Q6: 0
152	 	 	22	 Q11: 0
153	 	 	33	 Q6: 2
154	 	 	15	 Q13: 0	 	52
155	 	 	16	 Q11: 2
156	 	 	32	 Q13: 0
157	 	 	16	 Q4: 2	 	148
158	 	 	18	 Q13: 2
159	 	 	13	 Q6: 0
160	 	 	29	 Q3: 0	 	40
161	 	 	17	 Q5: 2	 	22
162	 	 	26	 Q9: 1
163	 	 	18	 Q9: 1
164	 	 	13	 Q3: 0
165	 	 	38	 Q2: 0
166	 	 	39	 Q4: 2
167	 	 	40	 Q10: 2
168	 	 	19	 Q6: 0
169	 	 	14	 Q1: 2	 	31
170	 	 	12	 Q9: 2
171	 	 	16	 Q10: 0	 	56
172	 	 	39	 Q2: 0
173	 	 	40	 Q6: 2
174	 	 	18	 Q7: 0
175	 	 	14	 Q13: 0
176	 	 	13	 Q0: 0	 	104	93
177	 	 	34	 Q9: 0	 	31	128
178	 	 	20	 Q1: 0
179	 	 	24	 Q4: 0
180	 	 	37	 Q1: 0
181	 	 	28	 Q8: 2	 	155
182	 	 	29	 Q12: 2
183	 	 	29	 Q11: 0	 	118
184	 	 	40	 Q13: 1
185	 	 	33	 Q6: 0	 	87
186	 	 	29	 Q12: 2	 	68
187	 	 	24	 Q6: 2
188	 	 	35	 Q9: 1
189	 	 	16	 Q1: 2
190	 	 	9	 Q13: 0
191	 	 	36	 Q11: 2
192	 	 	18	 Q2: 1	 	56
193	 	 	12	 Q12: 0
194	 	 	31	 Q12: 0	 	23
195	 	 	36	 Q11: 0	 	65
196	 	 	39	 Q10: 1	 	195	138
197	 	 	34	 Q13: 1
198	 	 	35	 Q7: 0	 	31
199	 	 	34	 Q5: 2	 	43	169
200	 	 	27	 Q6: 1
====================================================================================================================
